$instance size is  200
letting capacity be  49143
letting items be new type enum { 
a1,a2,a3,a4,a5,a6,a7,a8,a9,a10,a11,a12,a13,a14,a15,a16,a17,a18,a19,a20,a21,a22,a23,a24,a25,a26,a27,a28,a29,a30,a31,a32,a33,a34,a35,a36,a37,a38,a39,a40,a41,a42,a43,a44,a45,a46,a47,a48,a49,a50,a51,a52,a53,a54,a55,a56,a57,a58,a59,a60,a61,a62,a63,a64,a65,a66,a67,a68,a69,a70,a71,a72,a73,a74,a75,a76,a77,a78,a79,a80,a81,a82,a83,a84,a85,a86,a87,a88,a89,a90,a91,a92,a93,a94,a95,a96,a97,a98,a99,a100,a101,a102,a103,a104,a105,a106,a107,a108,a109,a110,a111,a112,a113,a114,a115,a116,a117,a118,a119,a120,a121,a122,a123,a124,a125,a126,a127,a128,a129,a130,a131,a132,a133,a134,a135,a136,a137,a138,a139,a140,a141,a142,a143,a144,a145,a146,a147,a148,a149,a150,a151,a152,a153,a154,a155,a156,a157,a158,a159,a160,a161,a162,a163,a164,a165,a166,a167,a168,a169,a170,a171,a172,a173,a174,a175,a176,a177,a178,a179,a180,a181,a182,a183,a184,a185,a186,a187,a188,a189,a190,a191,a192,a193,a194,a195,a196,a197,a198,a199,a200
}
letting weight be function (
a1 --> 586,a2 --> 915,a3 --> 156,a4 --> 272,a5 --> 278,a6 --> 629,a7 --> 198,a8 --> 632,a9 --> 435,a10 --> 991,a11 --> 971,a12 --> 15,a13 --> 383,a14 --> 822,a15 --> 83,a16 --> 640,a17 --> 170,a18 --> 470,a19 --> 687,a20 --> 6,a21 --> 286,a22 --> 347,a23 --> 472,a24 --> 564,a25 --> 693,a26 --> 483,a27 --> 404,a28 --> 532,a29 --> 294,a30 --> 917,a31 --> 377,a32 --> 716,a33 --> 80,a34 --> 931,a35 --> 600,a36 --> 217,a37 --> 205,a38 --> 979,a39 --> 683,a40 --> 904,a41 --> 568,a42 --> 986,a43 --> 134,a44 --> 503,a45 --> 63,a46 --> 927,a47 --> 865,a48 --> 913,a49 --> 185,a50 --> 30,a51 --> 939,a52 --> 479,a53 --> 215,a54 --> 409,a55 --> 1000,a56 --> 494,a57 --> 423,a58 --> 560,a59 --> 92,a60 --> 199,a61 --> 420,a62 --> 698,a63 --> 278,a64 --> 394,a65 --> 623,a66 --> 729,a67 --> 309,a68 --> 874,a69 --> 865,a70 --> 538,a71 --> 877,a72 --> 307,a73 --> 285,a74 --> 474,a75 --> 171,a76 --> 390,a77 --> 338,a78 --> 9,a79 --> 20,a80 --> 884,a81 --> 271,a82 --> 754,a83 --> 402,a84 --> 702,a85 --> 925,a86 --> 25,a87 --> 686,a88 --> 547,a89 --> 168,a90 --> 259,a91 --> 166,a92 --> 706,a93 --> 590,a94 --> 449,a95 --> 184,a96 --> 147,a97 --> 781,a98 --> 36,a99 --> 165,a100 --> 361,a101 --> 153,a102 --> 226,a103 --> 807,a104 --> 666,a105 --> 859,a106 --> 767,a107 --> 978,a108 --> 13,a109 --> 698,a110 --> 869,a111 --> 998,a112 --> 770,a113 --> 174,a114 --> 780,a115 --> 434,a116 --> 149,a117 --> 71,a118 --> 89,a119 --> 466,a120 --> 131,a121 --> 546,a122 --> 699,a123 --> 610,a124 --> 587,a125 --> 236,a126 --> 881,a127 --> 161,a128 --> 542,a129 --> 116,a130 --> 21,a131 --> 631,a132 --> 607,a133 --> 532,a134 --> 707,a135 --> 510,a136 --> 52,a137 --> 321,a138 --> 482,a139 --> 483,a140 --> 722,a141 --> 230,a142 --> 457,a143 --> 726,a144 --> 76,a145 --> 180,a146 --> 115,a147 --> 213,a148 --> 555,a149 --> 541,a150 --> 419,a151 --> 493,a152 --> 15,a153 --> 996,a154 --> 864,a155 --> 601,a156 --> 580,a157 --> 678,a158 --> 457,a159 --> 400,a160 --> 909,a161 --> 659,a162 --> 354,a163 --> 778,a164 --> 349,a165 --> 93,a166 --> 405,a167 --> 411,a168 --> 616,a169 --> 966,a170 --> 913,a171 --> 511,a172 --> 326,a173 --> 518,a174 --> 798,a175 --> 395,a176 --> 680,a177 --> 243,a178 --> 102,a179 --> 746,a180 --> 617,a181 --> 855,a182 --> 518,a183 --> 477,a184 --> 613,a185 --> 981,a186 --> 378,a187 --> 233,a188 --> 796,a189 --> 308,a190 --> 419,a191 --> 757,a192 --> 64,a193 --> 674,a194 --> 484,a195 --> 984,a196 --> 154,a197 --> 697,a198 --> 968,a199 --> 695,a200 --> 872
)
letting gain be function (
a1 --> 942,a2 --> 1120,a3 --> 516,a4 --> 671,a5 --> 678,a6 --> 970,a7 --> 578,a8 --> 972,a9 --> 830,a10 --> 1151,a11 --> 1143,a12 --> 162,a13 --> 784,a14 --> 1077,a15 --> 380,a16 --> 977,a17 --> 537,a18 --> 858,a19 --> 1005,a20 --> 103,a21 --> 687,a22 --> 750,a23 --> 860,a24 --> 928,a25 --> 1009,a26 --> 868,a27 --> 803,a28 --> 905,a29 --> 695,a30 --> 1120,a31 --> 779,a32 --> 1022,a33 --> 373,a34 --> 1126,a35 --> 952,a36 --> 604,a37 --> 588,a38 --> 1146,a39 --> 1003,a40 --> 1115,a41 --> 930,a42 --> 1149,a43 --> 479,a44 --> 884,a45 --> 332,a46 --> 1125,a47 --> 1097,a48 --> 1119,a49 --> 560,a50 --> 230,a51 --> 1130,a52 --> 865,a53 --> 601,a54 --> 807,a55 --> 1154,a56 --> 877,a57 --> 820,a58 --> 925,a59 --> 399,a60 --> 579,a61 --> 817,a62 --> 1012,a63 --> 678,a64 --> 794,a65 --> 966,a66 --> 1029,a67 --> 711,a68 --> 1101,a69 --> 1097,a70 --> 909,a71 --> 1103,a72 --> 709,a73 --> 685,a74 --> 861,a75 --> 539,a76 --> 791,a77 --> 741,a78 --> 126,a79 --> 188,a80 --> 1106,a81 --> 670,a82 --> 1042,a83 --> 801,a84 --> 1014,a85 --> 1124,a86 --> 210,a87 --> 1005,a88 --> 916,a89 --> 534,a90 --> 656,a91 --> 531,a92 --> 1016,a93 --> 945,a94 --> 841,a95 --> 558,a96 --> 501,a97 --> 1057,a98 --> 251,a99 --> 530,a100 --> 764,a101 --> 511,a102 --> 615,a103 --> 1070,a104 --> 993,a105 --> 1095,a106 --> 1049,a107 --> 1146,a108 --> 151,a109 --> 1012,a110 --> 1099,a111 --> 1153,a112 --> 1051,a113 --> 543,a114 --> 1056,a115 --> 829,a116 --> 504,a117 --> 352,a118 --> 393,a119 --> 855,a120 --> 474,a121 --> 915,a122 --> 1012,a123 --> 958,a124 --> 943,a125 --> 628,a126 --> 1105,a127 --> 524,a128 --> 912,a129 --> 447,a130 --> 192,a131 --> 972,a132 --> 956,a133 --> 905,a134 --> 1017,a135 --> 889,a136 --> 302,a137 --> 724,a138 --> 868,a139 --> 868,a140 --> 1025,a141 --> 620,a142 --> 848,a143 --> 1027,a144 --> 364,a145 --> 552,a146 --> 445,a147 --> 598,a148 --> 921,a149 --> 911,a150 --> 816,a151 --> 876,a152 --> 162,a153 --> 1153,a154 --> 1097,a155 --> 952,a156 --> 938,a157 --> 1000,a158 --> 848,a159 --> 800,a160 --> 1117,a161 --> 989,a162 --> 757,a163 --> 1055,a164 --> 752,a165 --> 401,a166 --> 804,a167 --> 809,a168 --> 962,a169 --> 1141,a170 --> 1119,a171 --> 890,a172 --> 729,a173 --> 895,a174 --> 1065,a175 --> 795,a176 --> 1001,a177 --> 636,a178 --> 420,a179 --> 1038,a180 --> 963,a181 --> 1093,a182 --> 895,a183 --> 864,a184 --> 960,a185 --> 1147,a186 --> 780,a187 --> 624,a188 --> 1064,a189 --> 710,a190 --> 816,a191 --> 1044,a192 --> 334,a193 --> 998,a194 --> 869,a195 --> 1148,a196 --> 513,a197 --> 1011,a198 --> 1142,a199 --> 1010,a200 --> 1101
)
